0
3032 0
25282 10805 0
99623 67938 24596 0
209741 162683 90162 20927 0
410137 342689 231817 105517 35168 0
541103 463222 332606 176371 78644 9125 0
905061 803337 627812 404461 247844 96937 47290 0
1057110 946972 755489 507788 328493 150356 85798 6152 0
1441298 1312298 1085087 783067 553709 313918 216183 63584 30211 0
